%%% static parameters %%%
timespan = 1;
initial_fruit_bushes = [40];
initial_foragers = [40];
ticks_to_flee = [100];
bush_growth_chance = [10];
rate_of_mutation = [5.0];
%%% dynamic parameters %%%
mean_strength_th = 0.9373444205320525;
mean_strength_w = 1;
mean_speed_th = 0.6966590791744072;
mean_speed_w = 14;
mean_intelligence_th = 0.2736508098762226;
mean_intelligence_w = 20;
murder_rate_th = 0.00549981790006171;
murder_rate_w = 36;
age_death_rate_th = 0.1507769308868092;
age_death_rate_w = 27;
starvation_rate_th = 0.7852416531242508;
starvation_rate_w = 20;
mean_reactive_aggression_th = 0.09111445445805855;
mean_reactive_aggression_w = 7;
mean_proactive_aggression_th = 0.6531007936001805;
mean_proactive_aggression_w = 42;
average_population_th = 914;
average_population_w = 29;
